c ---- [ banner ] ------------------------------------------------------------
c
c Kissat SAT Solver
c 
c Copyright (c) 2021-2024 Armin Biere University of Freiburg
c Copyright (c) 2019-2021 Armin Biere Johannes Kepler University Linz
c 
c Version 4.0.1 43f02cf3e992cb44653b35e5cb26f93281552ae0
c gcc (Ubuntu 13.2.0-23ubuntu4) 13.2.0 -W -Wall -O3 -DNDEBUG
c Thu Sep 12 12:27:46 CEST 2024 Linux abryzen9 6.8.0-41-generic x86_64
c
c ---- [ parsing ] -----------------------------------------------------------
c
c opened and reading DIMACS file:
c
c   /data/artifact/AMulet2.0_artifact/exp4/cnf_dc2_64/64_64_U2_WT_LF_Multgen_dc2.cnf
c
c parsed 'p cnf 35935 158743' header
c closing input after reading 3207652 bytes (3 MB)
c finished parsing after 0.04 seconds
c
c ---- [ options ] -----------------------------------------------------------
c
c --stable=0                       (different from default '1')
c
c ---- [ solving ] -----------------------------------------------------------
c
c  seconds switched rate     size/glue tier1  binary          remaining
c         MB reductions conflicts size  tier2    irredundant
c          level restarts redundant glue  trail          variables
c
c *  0.04 14 0 0 0  0 0   0   0 0.0 0 0 0 0 0% 4496 154245 35932 100%
c (  0.07 15 0 0 0  0 0   0   0 0.0 0 0 0 0 0% 4496 154245 35932 100%
c .  0.08 16 0 0 0  0 0   0   0 0.0 0 0 0 0 0% 4492 154245 35932 100%
c c  0.21 26 0 0 0  0 0   0   0 0.0 0 0 0 0 0% 18100 127120 29130 81%
c d  0.22 26 0 0 0  0 0   0   0 0.0 0 0 0 0 0% 4494 127120 29130 81%
c =  0.28 26 0 0 0  0 0   0   0 0.0 0 0 0 0 0% 4620 127120 29040 81%
c d  0.28 26 0 0 0  0 0   0   0 0.0 0 0 0 0 0% 4440 127120 29040 81%
c f  0.43 26 0 0 0  0 0   0   0 0.0 0 0 0 0 0% 11343 116709 32512 90%
c e  0.68 26 0 0 0  0 0   0   0 0.0 0 0 0 0 0% 3432 127484 22082 61%
c )  0.68 26 0 0 0  0 0   0   0 0.0 0 0 0 0 0% 3432 127484 22082 61%
c {  0.71 26 0 0 0  0 0   0   0 0.0 0 0 2 6 0% 3432 127484 22082 61%
c -  0.96 28 206 0 1 243 39 1001 755 2.6 13 5 4 9 21% 3494 127480 22082 61%
c -  1.21 28 253 0 2 360 44 2001 1509 3.5 19 5 3 9 24% 3507 127480 22082 61%
c c  1.35 28 317 0 2 410 47 2507 1963 3.9 21 5 3 10 24% 4511 123903 21592 60%
c d  1.35 28 317 0 2 410 47 2507 1957 3.9 21 5 3 10 24% 3531 123903 21592 60%
c u  1.36 28 317 0 2 410 47 2507 1606 3.9 21 5 3 10 24% 3471 123903 21592 60%
c v  1.38 28 317 0 2 410 47 2507 1351 3.9 21 5 3 10 24% 3472 123903 21592 60%
c w  1.41 28 317 0 2 410 47 2507 1350 3.9 21 5 3 10 24% 3472 123903 21592 60%
c x  1.43 28 317 0 2 410 47 2507 1350 3.9 21 5 3 10 24% 3564 123703 21592 60%
c =  1.48 28 317 0 2 410 47 2507 1350 3.9 21 5 3 10 24% 3740 123703 21504 60%
c
c  seconds   switched   rate       size/glue tier1     binary          remaining
c         MB  reductions conflicts       size  tier2      irredundant
c           level restarts    redundant    glue    trail          variables
c
c d  1.49 28 317 0 2 410 47 2507 1349 3.9 21 5 3 10 24% 3564 123703 21504 60%
c t  1.49 28 317 0 2 410 47 2507 1349 3.9 21 5 3 10 24% 3543 123703 21504 60%
c f  1.52 28 317 0 2 410 47 2507 1349 3.9 21 5 3 10 24% 3620 123586 21544 60%
c u  1.62 28 317 0 2 410 47 2507 1315 3.9 21 5 3 10 24% 3620 123586 21544 60%
c v  1.63 28 317 0 2 410 47 2507 1261 3.9 21 5 3 10 24% 3620 123586 21544 60%
c w  1.66 28 317 0 2 410 47 2507 1259 3.9 21 5 3 10 24% 3620 123586 21544 60%
c x  1.68 28 317 0 2 410 47 2507 1259 3.9 21 5 3 10 24% 3623 123523 21544 60%
c =  1.76 28 317 0 2 410 47 2507 1259 3.9 21 5 3 10 24% 4103 123523 21304 59%
c d  1.77 28 317 0 2 410 47 2507 1259 3.9 21 5 3 10 24% 3622 123523 21304 59%
c t  1.79 28 317 0 2 410 47 2507 1259 3.9 21 5 3 10 24% 3620 123523 21304 59%
c f  1.83 28 317 0 2 410 47 2507 1259 3.9 21 5 3 10 24% 3626 123514 21307 59%
c -  1.95 28 458 0 3 438 41 3416 1820 3.6 18 5 2 9 22% 3687 123503 21307 59%
c -  2.54 28 444 0 4 639 44 5148 3098 3.4 17 5 2 9 23% 3721 123498 21307 59%
c -  2.93 28 462 0 5 813 43 7149 4345 3.3 16 5 2 8 23% 3833 123484 21307 59%
c d  3.21 28 451 0 5 937 45 7719 4871 3.4 17 5 2 8 23% 3839 123484 21303 59%
c u  3.25 28 451 0 5 937 45 7719 4355 3.4 17 5 2 8 23% 3848 123484 21303 59%
c v  3.28 28 451 0 5 937 45 7719 3667 3.4 17 5 2 8 23% 3850 123484 21303 59%
c w  3.34 28 451 0 5 937 45 7719 3661 3.4 17 5 2 8 23% 3850 123484 21303 59%
c =  3.48 28 451 0 5 937 45 7719 3661 3.4 17 5 2 8 23% 4060 123484 21198 59%
c d  3.49 28 451 0 5 937 45 7719 3656 3.4 17 5 2 8 23% 3847 123484 21198 59%
c
c  seconds   switched   rate       size/glue tier1    binary          remaining
c         MB  reductions conflicts       size  tier2     irredundant
c           level restarts    redundant    glue   trail          variables
c
c t  3.51 28 451 0 5 937 45 7719 3656 3.4 17 5 2 8 23% 3834 123484 21198 59%
c f  3.55 28 451 0 5 937 45 7719 3656 3.4 17 5 2 8 23% 3874 123424 21218 59%
c c  3.64 28 451 0 5 937 45 7719 3655 3.4 17 5 2 8 23% 3881 123407 21215 59%
c d  3.65 28 451 0 5 937 45 7719 3655 3.4 17 5 2 8 23% 3875 123407 21215 59%
c u  3.68 28 451 0 5 937 45 7719 3556 3.4 17 5 2 8 23% 3874 123407 21215 59%
c v  3.70 28 451 0 5 937 45 7719 3453 3.4 17 5 2 8 23% 3874 123407 21215 59%
c w  3.76 28 451 0 5 937 45 7719 3444 3.4 17 5 2 8 23% 3874 123407 21215 59%
c x  3.80 28 451 0 5 937 45 7719 3444 3.4 17 5 2 8 23% 3877 122826 21215 59%
c =  3.92 28 451 0 5 937 45 7719 3444 3.4 17 5 2 8 23% 4301 122826 21003 58%
c d  3.93 28 451 0 5 937 45 7719 3443 3.4 17 5 2 8 23% 3872 122826 21003 58%
c t  3.95 28 451 0 5 937 45 7719 3443 3.4 17 5 2 8 23% 3855 122826 21003 58%
c f  3.98 28 451 0 5 937 45 7719 3443 3.4 17 5 2 8 23% 3941 122697 21046 59%
c -  4.56 28 407 0 6 1216 45 9385 4391 3.6 22 6 2 8 25% 3991 122695 21046 59%
c o  4.68 28 397 0 6 1248 44 10001 4964 3.6 22 6 2 8 25% 3996 122695 21046 59%
c -  5.04 28 382 0 7 1390 43 11835 5967 3.8 23 6 2 8 24% 4045 122692 21046 59%
c s  5.13 28 380 0 7 1414 41 12530 6447 3.7 23 6 2 8 24% 4094 118778 21046 59%
c e  5.22 28 380 0 7 1414 41 12530 6447 3.7 23 6 2 8 24% 3361 119379 20588 57%
c s  5.22 28 380 0 7 1414 41 12530 6447 3.7 23 6 2 8 24% 3371 119088 20588 57%
c e  5.23 28 380 0 7 1414 41 12530 6447 3.7 23 6 2 8 24% 3348 119108 20582 57%
c ^  5.23 28 380 0 7 1414 41 12530 6447 3.7 23 6 2 8 24% 3348 119108 20582 57%
c
c  seconds   switched    rate        size/glue tier1    binary          remaining
c         MB  reductions   conflicts       size  tier2     irredundant
c           level  restarts     redundant    glue   trail          variables
c
c -  5.67 28 362 0 8 1594 40 14482 7045 3.8 24 6 2 8 25% 3406 119103 20582 57%
c d  5.82 28 352 0 8 1636 39 15811 7959 3.8 23 6 2 8 25% 3390 119103 20526 57%
c u  5.84 28 352 0 8 1636 39 15811 7179 3.8 23 6 2 8 25% 3405 119103 20526 57%
c v  5.88 28 352 0 8 1636 39 15811 6173 3.8 23 6 2 8 25% 3405 119103 20526 57%
c w  5.93 28 352 0 8 1636 39 15811 6162 3.8 23 6 2 8 25% 3405 119103 20526 57%
c x  5.97 28 352 0 8 1636 39 15811 6162 3.8 23 6 2 8 25% 3424 118632 20526 57%
c =  6.14 28 352 0 8 1636 39 15811 6162 3.8 23 6 2 8 25% 4022 118632 20227 56%
c d  6.15 28 352 0 8 1636 39 15811 6141 3.8 23 6 2 8 25% 3396 118632 20227 56%
c t  6.16 28 352 0 8 1636 39 15811 6141 3.8 23 6 2 8 25% 3337 118632 20227 56%
c f  6.21 28 352 0 8 1636 39 15811 6141 3.8 23 6 2 8 25% 3364 118565 20242 56%
c u  6.26 28 352 0 8 1636 39 15811 5979 3.8 23 6 2 8 25% 3366 118565 20242 56%
c v  6.29 28 352 0 8 1636 39 15811 5833 3.8 23 6 2 8 25% 3366 118565 20242 56%
c w  6.35 28 352 0 8 1636 39 15811 5816 3.8 23 6 2 8 25% 3366 118565 20242 56%
c x  6.39 28 352 0 8 1636 39 15811 5816 3.8 23 6 2 8 25% 3442 117312 20242 56%
c =  6.57 28 352 0 8 1636 39 15811 5816 3.8 23 6 2 8 25% 6732 117312 18597 52%
c d  6.57 28 352 0 8 1636 39 15811 5739 3.8 23 6 2 8 25% 3356 117312 18597 52%
c t  6.58 28 352 0 8 1636 39 15811 5739 3.8 23 6 2 8 25% 3342 117312 18597 52%
c f  6.63 28 352 0 8 1636 39 15811 5739 3.8 23 6 2 8 25% 3343 117306 18599 52%
c -  6.83 28 342 0 9 1745 38 17310 6520 3.7 23 6 2 7 24% 3364 117304 18599 52%
c o  7.37 28 332 0 9 2030 37 20010 8960 3.7 23 6 2 7 25% 3418 117300 18599 52%
c
c  seconds   switched     rate        size/glue tier1    binary          remaining
c         MB   reductions   conflicts       size  tier2     irredundant
c           level   restarts     redundant    glue   trail          variables
c
c -  7.42 28 336 0 10 2053 38 20310 8466 3.8 23 6 2 7 25% 3419 117300 18599 52%
c -  7.77 28 335 0 11 2231 36 23472 10207 3.6 22 6 2 7 25% 3491 117295 18599 52%
c s  8.14 28 326 0 11 2351 35 25049 11630 3.6 22 6 2 7 25% 3516 105789 18599 52%
c e  8.26 28 326 0 11 2351 35 25049 11630 3.6 22 6 2 7 25% 3016 106437 18301 51%
c s  8.26 28 326 0 11 2351 35 25049 11630 3.6 22 6 2 7 25% 3059 106175 18301 51%
c e  8.27 28 326 0 11 2351 35 25049 11630 3.6 22 6 2 7 25% 3039 106196 18294 51%
c ^  8.27 28 326 0 11 2351 35 25049 11630 3.6 22 6 2 7 25% 3039 106196 18294 51%
c -  8.67 28 323 0 12 2493 35 26788 11273 3.5 22 6 2 7 25% 3081 106195 18294 51%
c c  8.77 28 322 0 12 2505 35 26950 11415 3.5 22 6 2 7 25% 3167 105885 18242 51%
c d  8.77 28 322 0 12 2505 35 26950 11376 3.5 22 6 2 7 25% 3063 105885 18242 51%
c u  8.83 28 322 0 12 2505 35 26950 10112 3.5 22 6 2 7 25% 3056 105885 18242 51%
c v  8.88 28 322 0 12 2505 35 26950 8984 3.5 22 6 2 7 25% 3058 105885 18242 51%
c w  8.89 28 322 0 12 2505 35 26950 8982 3.5 22 6 2 7 25% 3058 105885 18242 51%
c x  8.94 28 322 0 12 2505 35 26950 8982 3.5 22 6 2 7 25% 3059 105803 18242 51%
c =  9.20 28 322 0 12 2505 35 26950 8982 3.5 22 6 2 7 25% 5809 105803 16867 47%
c d  9.21 28 322 0 12 2505 35 26950 8821 3.5 22 6 2 7 25% 2994 105803 16867 47%
c t  9.22 28 322 0 12 2505 35 26950 8821 3.5 22 6 2 7 25% 2938 105803 16867 47%
c f  9.29 28 322 0 12 2505 35 26950 8821 3.5 22 6 2 7 25% 2984 105660 16894 47%
c u  9.34 28 322 0 12 2505 35 26950 8455 3.5 22 6 2 7 25% 2987 105660 16894 47%
c v  9.37 28 322 0 12 2505 35 26950 8266 3.5 22 6 2 7 25% 2987 105660 16894 47%
c
c  seconds   switched     rate        size/glue tier1    binary          remaining
c         MB   reductions   conflicts       size  tier2     irredundant
c           level   restarts     redundant    glue   trail          variables
c
c w  9.38 28 322 0 12 2505 35 26950 8262 3.5 22 6 2 7 25% 2987 105660 16894 47%
c =  9.61 28 322 0 12 2505 35 26950 8262 3.5 22 6 2 7 25% 3535 105660 16620 46%
c d  9.62 28 322 0 12 2505 35 26950 8262 3.5 22 6 2 7 25% 2984 105660 16620 46%
c t  9.64 28 322 0 12 2505 35 26950 8262 3.5 22 6 2 7 25% 2972 105660 16620 46%
c f  9.67 28 322 0 12 2505 35 26950 8262 3.5 22 6 2 7 25% 2976 105650 16622 46%
c - 10.13 28 332 0 13 2681 34 30255 10270 3.5 21 6 2 6 24% 3061 105646 16622 46%
c - 10.72 28 318 0 14 2964 32 33860 12375 3.4 21 6 2 6 24% 3107 105645 16622 46%
c - 11.45 28 306 0 15 3280 32 37603 14190 3.3 21 6 2 6 23% 3170 105643 16622 46%
c o 11.76 28 305 0 15 3446 32 40073 16309 3.3 21 7 2 6 23% 3222 105641 16622 46%
c c 11.97 28 300 0 15 3527 32 41280 17232 3.3 21 7 2 6 23% 3357 105040 16526 46%
c d 11.97 28 300 0 15 3527 32 41280 17015 3.3 21 7 2 6 23% 3160 105040 16523 46%
c u 12.01 28 300 0 15 3527 32 41280 15165 3.3 21 7 2 6 23% 3175 105040 16523 46%
c v 12.04 28 300 0 15 3527 32 41280 14478 3.3 21 7 2 6 23% 3175 105040 16523 46%
c w 12.08 28 300 0 15 3527 32 41280 14478 3.3 21 7 2 6 23% 3175 105040 16523 46%
c x 12.10 28 300 0 15 3527 32 41280 14478 3.3 21 7 2 6 23% 3175 105036 16523 46%
c = 12.23 28 300 0 15 3527 32 41280 14478 3.3 21 7 2 6 23% 3181 105036 16520 46%
c d 12.24 28 300 0 15 3527 32 41280 14453 3.3 21 7 2 6 23% 3158 105036 16512 46%
c t 12.25 28 300 0 15 3527 32 41280 14453 3.3 21 7 2 6 23% 3131 105036 16512 46%
c c 12.32 28 300 0 15 3527 32 41280 14453 3.3 21 7 2 6 23% 3154 104945 16500 46%
c d 12.32 28 300 0 15 3527 32 41280 14425 3.3 21 7 2 6 23% 3130 104945 16500 46%
c
c  seconds   switched     rate         size/glue tier1    binary          remaining
c         MB   reductions   conflicts        size  tier2     irredundant
c           level   restarts      redundant    glue   trail          variables
c
c u 12.36 28 300 0 15 3527 32 41280 13665 3.3 21 7 2 6 23% 3150 104945 16500 46%
c v 12.40 28 300 0 15 3527 32 41280 12675 3.3 21 7 2 6 23% 3154 104945 16500 46%
c w 12.48 28 300 0 15 3527 32 41280 12671 3.3 21 7 2 6 23% 3154 104945 16500 46%
c = 12.65 28 300 0 15 3527 32 41280 12671 3.3 21 7 2 6 23% 3170 104945 16492 46%
c d 12.66 28 300 0 15 3527 32 41280 12662 3.3 21 7 2 6 23% 3145 104945 16490 46%
c t 12.67 28 300 0 15 3527 32 41280 12662 3.3 21 7 2 6 23% 3143 104945 16490 46%
c - 12.73 28 299 0 16 3549 32 41476 11741 3.3 21 7 2 6 23% 3143 104945 16490 46%
c - 13.23 28 288 0 17 3862 31 45476 13782 3.2 21 7 2 6 23% 3236 104939 16490 46%
c - 13.63 28 276 0 18 4058 30 49599 15853 3.2 21 6 2 6 22% 3304 104937 16490 46%
c s 14.12 28 270 0 18 4232 29 52156 18105 3.2 21 6 2 6 22% 3345 94173 16490 46%
c e 14.23 28 270 0 18 4232 29 52156 18105 3.2 21 6 2 6 22% 2848 94949 16237 45%
c 2 14.23 28 270 0 18 4232 29 52156 18105 3.2 21 6 2 6 22% 2844 94949 16237 45%
c s 14.23 28 270 0 18 4232 29 52156 18105 3.2 21 6 2 6 22% 2852 94609 16237 45%
c e 14.24 28 270 0 18 4232 29 52156 18105 3.2 21 6 2 6 22% 2844 94610 16232 45%
c ^ 14.24 28 270 0 18 4232 29 52156 18105 3.2 21 6 2 6 22% 2844 94610 16232 45%
c - 14.45 28 270 0 19 4312 29 53842 17186 3.1 20 6 2 5 22% 2868 94610 16232 45%
c - 15.42 28 266 0 20 4745 29 58200 19024 3.1 21 7 2 5 22% 2927 94609 16232 45%
c d 15.53 28 266 0 20 4801 29 58911 19471 3.1 21 7 2 5 22% 2891 94607 16201 45%
c u 15.63 28 266 0 20 4801 29 58911 16696 3.1 21 7 2 5 22% 2932 94607 16201 45%
c v 15.67 28 266 0 20 4801 29 58911 15323 3.1 21 7 2 5 22% 2942 94607 16201 45%
c
c  seconds   switched     rate         size/glue tier1    binary         remaining
c         MB   reductions   conflicts        size  tier2     irredundant
c           level   restarts      redundant    glue   trail         variables
c
c w 15.71 28 266 0 20 4801 29 58911 15142 3.1 21 7 2 5 22% 2943 94607 16201 45%
c = 15.89 28 266 0 20 4801 29 58911 15142 3.1 21 7 2 5 22% 3037 94607 16154 45%
c d 15.90 28 266 0 20 4801 29 58911 15109 3.1 21 7 2 5 22% 2913 94607 16140 45%
c t 15.91 28 266 0 20 4801 29 58911 15109 3.1 21 7 2 5 22% 2869 94607 16140 45%
c f 15.93 28 266 0 20 4801 29 58911 15109 3.1 21 7 2 5 22% 2881 94547 16147 45%
c c 15.97 28 266 0 20 4801 29 58911 15000 3.1 21 7 2 5 22% 2986 94048 16085 45%
c d 15.97 28 266 0 20 4801 29 58911 15000 3.1 21 7 2 5 22% 2862 94048 16085 45%
c u 16.03 28 266 0 20 4801 29 58911 14411 3.1 21 7 2 5 22% 2871 94048 16085 45%
c v 16.07 28 266 0 20 4801 29 58911 14137 3.1 21 7 2 5 22% 2871 94048 16085 45%
c w 16.12 28 266 0 20 4801 29 58911 14081 3.1 21 7 2 5 22% 2871 94048 16085 45%
c x 16.16 28 266 0 20 4801 29 58911 14081 3.1 21 7 2 5 22% 2874 93825 16085 45%
c = 16.35 28 266 0 20 4801 29 58911 14081 3.1 21 7 2 5 22% 3136 93825 15954 44%
c d 16.36 28 266 0 20 4801 29 58911 13895 3.1 21 7 2 5 22% 2835 93825 15949 44%
c t 16.37 28 266 0 20 4801 29 58911 13895 3.1 21 7 2 5 22% 2815 93825 15949 44%
c - 16.85 28 258 0 21 5109 28 62672 15707 3.1 20 7 2 5 22% 2909 93825 15949 44%
c - 17.31 28 251 0 22 5349 27 67254 18067 3.1 20 7 2 5 22% 2972 93825 15949 44%
c o 17.63 28 246 0 22 5599 27 70213 20586 3.1 20 7 2 5 22% 3018 93825 15949 44%
c - 17.97 28 245 0 23 5846 27 71944 20080 3.1 21 7 2 5 22% 3045 93825 15949 44%
c - 18.53 28 239 0 24 6247 27 76740 21842 3.1 21 7 2 5 22% 3132 93823 15949 44%
c c 18.83 28 235 0 24 6415 26 79962 24525 3.1 20 7 2 5 21% 3288 92838 15786 44%
c
c  seconds   switched     rate         size/glue tier1    binary         remaining
c         MB   reductions   conflicts        size  tier2     irredundant
c           level   restarts      redundant    glue   trail         variables
c
c d 18.84 28 235 0 24 6415 26 79962 24143 3.1 20 7 2 5 21% 2962 92838 15786 44%
c u 18.91 28 235 0 24 6415 26 79962 20797 3.1 20 7 2 5 21% 3003 92838 15786 44%
c v 18.97 28 235 0 24 6415 26 79962 18987 3.1 20 7 2 5 21% 3021 92838 15786 44%
c w 19.04 28 235 0 24 6415 26 79962 18952 3.1 20 7 2 5 21% 3021 92838 15786 44%
c = 19.30 28 235 0 24 6415 26 79962 18952 3.1 20 7 2 5 21% 4183 92836 15205 42%
c d 19.30 28 235 0 24 6415 26 79962 18316 3.1 20 7 2 5 21% 2892 92836 15198 42%
c t 19.31 28 235 0 24 6415 26 79962 18316 3.1 20 7 2 5 21% 2790 92836 15198 42%
c f 19.34 28 235 0 24 6415 26 79962 18316 3.1 20 7 2 5 21% 2810 92734 15210 42%
c c 19.38 28 235 0 24 6415 26 79962 18294 3.1 20 7 2 5 21% 2827 92647 15200 42%
c d 19.39 28 235 0 24 6415 26 79962 18294 3.1 20 7 2 5 21% 2807 92647 15200 42%
c u 19.44 28 235 0 24 6415 26 79962 17412 3.1 20 7 2 5 21% 2812 92647 15200 42%
c v 19.48 28 235 0 24 6415 26 79962 16991 3.1 20 7 2 5 21% 2813 92647 15200 42%
c w 19.52 28 235 0 24 6415 26 79962 16886 3.1 20 7 2 5 21% 2813 92647 15200 42%
c x 19.56 28 235 0 24 6415 26 79962 16886 3.1 20 7 2 5 21% 2813 92589 15200 42%
c = 19.82 28 235 0 24 6415 26 79962 16886 3.1 20 7 2 5 21% 3725 92589 14744 41%
c d 19.82 28 235 0 24 6415 26 79962 16742 3.1 20 7 2 5 21% 2785 92589 14744 41%
c t 19.83 28 235 0 24 6415 26 79962 16742 3.1 20 7 2 5 21% 2697 92589 14744 41%
c f 19.85 28 235 0 24 6415 26 79962 16742 3.1 20 7 2 5 21% 2720 92427 14768 41%
c - 19.94 28 236 0 25 6464 26 81638 14473 3.1 20 7 1 5 21% 2741 92427 14768 41%
c - 20.72 28 228 0 26 6851 25 86638 15999 3.1 20 7 1 5 21% 2798 92425 14768 41%
c
c  seconds   switched     rate         size/glue tier1    binary         remaining
c         MB   reductions   conflicts        size  tier2     irredundant
c           level   restarts      redundant    glue   trail         variables
c
c - 22.01 28 224 0 27 7439 26 91742 17776 3.1 21 7 1 5 22% 2872 92425 14768 41%
c s 22.67 28 224 0 27 7757 26 95806 21362 3.1 21 7 1 5 22% 2928 85264 14768 41%
c e 22.78 28 224 0 27 7757 26 95806 21362 3.1 21 7 1 5 22% 1735 87986 14172 39%
c 2 22.78 28 224 0 27 7757 26 95806 21362 3.1 21 7 1 5 22% 1734 87986 14172 39%
c s 22.79 28 224 0 27 7757 26 95806 21362 3.1 21 7 1 5 22% 1769 87059 14172 39%
c e 22.81 28 224 0 27 7757 26 95806 21362 3.1 21 7 1 5 22% 1737 87158 14152 39%
c ^ 22.81 28 224 0 27 7757 26 95806 21362 3.1 21 7 1 5 22% 1737 87158 14152 39%
c - 23.14 28 223 0 28 7903 26 96938 17356 3.1 21 7 1 5 22% 1741 87158 14152 39%
c - 23.68 28 217 0 29 8252 25 102230 18628 3.1 21 7 1 5 22% 1861 87156 14152 39%
c d 23.92 28 216 0 29 8420 25 104568 20573 3.1 21 7 1 5 22% 1816 87156 14118 39%
c u 23.96 28 216 0 29 8420 25 104568 18910 3.1 21 7 1 5 22% 1836 87156 14118 39%
c v 24.02 28 216 0 29 8420 25 104568 16376 3.1 21 7 1 5 22% 1850 87156 14118 39%
c w 24.13 28 216 0 29 8420 25 104568 16053 3.1 21 7 1 5 22% 1850 87156 14118 39%
c = 24.42 28 216 0 29 8420 25 104568 16053 3.1 21 7 1 5 22% 2072 87156 14007 39%
c d 24.42 28 216 0 29 8420 25 104568 15953 3.1 21 7 1 5 22% 1806 87156 14001 39%
c t 24.43 28 216 0 29 8420 25 104568 15953 3.1 21 7 1 5 22% 1782 87156 14001 39%
c f 24.47 28 216 0 29 8420 25 104568 15953 3.1 21 7 1 5 22% 1808 86979 14016 39%
c c 24.50 28 216 0 29 8420 25 104568 15903 3.1 21 7 1 5 22% 1865 86777 13991 39%
c d 24.51 28 216 0 29 8420 25 104568 15903 3.1 21 7 1 5 22% 1815 86777 13991 39%
c u 24.54 28 216 0 29 8420 25 104568 15529 3.1 21 7 1 5 22% 1820 86777 13991 39%
c
c  seconds   switched     rate          size/glue tier1    binary         remaining
c         MB   reductions   conflicts         size  tier2     irredundant
c           level   restarts       redundant    glue   trail         variables
c
c v 24.58 28 216 0 29 8420 25 104568 14952 3.1 21 7 1 5 22% 1820 86777 13991 39%
c w 24.67 28 216 0 29 8420 25 104568 14776 3.1 21 7 1 5 22% 1820 86777 13991 39%
c = 24.93 28 216 0 29 8420 25 104568 14776 3.1 21 7 1 5 22% 1904 86777 13949 39%
c d 24.94 28 216 0 29 8420 25 104568 14759 3.1 21 7 1 5 22% 1816 86777 13949 39%
c t 24.94 28 216 0 29 8420 25 104568 14759 3.1 21 7 1 5 22% 1809 86777 13949 39%
c f 24.95 28 216 0 29 8420 25 104568 14759 3.1 21 7 1 5 22% 1821 86705 13955 39%
c - 25.30 28 212 0 30 8645 25 107615 15252 3.1 21 7 1 5 22% 1843 86705 13955 39%
c o 25.50 28 209 0 30 8747 24 110213 17501 3.1 21 7 1 5 22% 1875 86705 13955 39%
c - 26.09 28 207 0 31 9156 24 113092 17807 3.1 21 7 1 5 22% 1891 86705 13955 39%
c - 27.06 28 203 0 32 9924 25 118659 19865 3.1 22 7 1 5 23% 1929 86705 13955 39%
c - 27.73 28 199 0 33 10378 25 124316 21551 3.1 22 7 1 5 23% 1970 86705 13955 39%
c - 28.45 28 195 0 34 10820 24 130060 22928 3.1 22 7 1 5 23% 2014 86704 13955 39%
c c 28.76 28 194 0 34 11032 24 132808 25307 3.1 22 7 1 5 23% 2057 86533 13927 39%
c d 28.77 28 194 0 34 11032 24 132808 25235 3.1 22 7 1 5 23% 2001 86533 13927 39%
c u 28.81 28 194 0 34 11032 24 132808 23334 3.1 22 7 1 5 23% 2008 86533 13927 39%
c v 28.88 28 194 0 34 11032 24 132808 20068 3.1 22 7 1 5 23% 2017 86533 13927 39%
c w 28.96 28 194 0 34 11032 24 132808 20062 3.1 22 7 1 5 23% 2017 86533 13927 39%
c x 29.02 28 194 0 34 11032 24 132808 20052 3.1 22 7 1 5 23% 2065 84652 13927 39%
c d 29.36 28 194 0 34 11032 24 132808 20045 3.1 22 7 1 5 23% 2059 84652 13924 39%
c t 29.37 28 194 0 34 11032 24 132808 20045 3.1 22 7 1 5 23% 2017 84652 13924 39%
c
c  seconds   switched      rate          size/glue tier1    binary         remaining
c         MB   reductions    conflicts         size  tier2     irredundant
c           level   restarts        redundant    glue   trail         variables
c
c u 29.45 28 194 0 34 11032 24 132808 19508 3.1 22 7 1 5 23% 2027 84652 13924 39%
c v 29.49 28 194 0 34 11032 24 132808 18796 3.1 22 7 1 5 23% 2028 84652 13924 39%
c w 29.63 28 194 0 34 11032 24 132808 18417 3.1 22 7 1 5 23% 2030 84652 13924 39%
c d 29.64 28 194 0 34 11032 24 132808 18415 3.1 22 7 1 5 23% 2026 84652 13922 39%
c t 29.64 28 194 0 34 11032 24 132808 18415 3.1 22 7 1 5 23% 2022 84652 13922 39%
c - 30.02 28 193 0 35 11284 24 135891 18548 3.1 23 7 1 5 24% 2040 84652 13922 39%
c - 30.79 28 191 0 36 11925 24 141807 20940 3.2 23 7 1 5 24% 2085 84650 13922 39%
c - 31.47 28 187 0 37 12443 24 147807 23046 3.2 24 7 1 5 24% 2106 84649 13922 39%
c - 32.02 28 182 0 38 12850 23 153890 24712 3.2 24 7 1 4 24% 2149 84649 13922 39%
c s 32.47 28 180 0 38 13138 23 157861 28356 3.2 24 7 1 4 24% 2188 84452 13922 39%
c e 32.58 28 180 0 38 13138 23 157861 28356 3.2 24 7 1 4 24% 1705 97016 12316 34%
c 2 32.58 28 180 0 38 13138 23 157861 28356 3.2 24 7 1 4 24% 1703 97016 12316 34%
c s 32.60 28 180 0 38 13138 23 157861 28356 3.2 24 7 1 4 24% 1730 94526 12316 34%
c e 32.62 28 180 0 38 13138 23 157861 28356 3.2 24 7 1 4 24% 1694 94672 12288 34%
c ^ 32.62 28 180 0 38 13138 23 157861 28356 3.2 24 7 1 4 24% 1694 94672 12288 34%
c - 32.91 28 178 0 39 13348 23 160058 19978 3.2 24 8 1 4 24% 1703 94672 12288 34%
c o 32.92 28 178 0 39 13350 23 160269 20156 3.2 24 8 1 4 24% 1704 94672 12288 34%
c d 33.36 28 176 0 39 13692 23 164782 24252 3.2 24 8 1 4 24% 1712 94670 12282 34%
c u 33.40 28 176 0 39 13692 23 164782 22046 3.2 24 8 1 4 24% 1737 94670 12282 34%
c v 33.45 28 176 0 39 13692 23 164782 19591 3.2 24 8 1 4 24% 1746 94670 12282 34%
c
c  seconds   switched      rate          size/glue tier1    binary         remaining
c         MB   reductions    conflicts         size  tier2     irredundant
c           level   restarts        redundant    glue   trail         variables
c
c w 33.59 28 176 0 39 13692 23 164782 19537 3.2 24 8 1 4 24% 1746 94670 12282 34%
c x 33.66 28 176 0 39 13692 23 164782 19528 3.2 24 8 1 4 24% 1777 94373 12282 34%
c = 34.03 28 176 0 39 13692 23 164782 19528 3.2 24 8 1 4 24% 1803 94369 12269 34%
c d 34.04 28 176 0 39 13692 23 164782 19521 3.2 24 8 1 4 24% 1759 94369 12260 34%
c t 34.04 28 176 0 39 13692 23 164782 19521 3.2 24 8 1 4 24% 1711 94369 12260 34%
c f 34.12 28 176 0 39 13692 23 164782 19521 3.2 24 8 1 4 24% 1711 94349 12261 34%
c c 34.15 28 176 0 39 13692 23 164782 19498 3.2 24 8 1 4 24% 1751 94257 12250 34%
c d 34.15 28 176 0 39 13692 23 164782 19498 3.2 24 8 1 4 24% 1729 94257 12250 34%
c u 34.18 28 176 0 39 13692 23 164782 18987 3.2 24 8 1 4 24% 1734 94257 12250 34%
c v 34.22 28 176 0 39 13692 23 164782 18490 3.2 24 8 1 4 24% 1736 94257 12250 34%
c w 34.41 28 176 0 39 13692 23 164782 17690 3.2 24 8 1 4 24% 1736 94257 12250 34%
c = 34.79 28 176 0 39 13692 23 164782 17690 3.2 24 8 1 4 24% 1774 94257 12231 34%
c d 34.79 28 176 0 39 13692 23 164782 17670 3.2 24 8 1 4 24% 1728 94257 12230 34%
c t 34.80 28 176 0 39 13692 23 164782 17670 3.2 24 8 1 4 24% 1719 94257 12230 34%
c - 34.93 28 175 0 40 13777 23 166303 16573 3.2 24 8 1 4 24% 1725 94257 12230 34%
c - 35.54 28 174 0 41 14199 22 172627 19320 3.2 24 8 1 4 24% 1749 94256 12230 34%
c - 36.25 28 173 0 42 14662 22 179030 21777 3.1 24 8 1 4 24% 1782 94254 12230 34%
c - 36.86 28 169 0 43 15126 22 185511 23508 3.1 24 8 1 4 24% 1798 94254 12230 34%
c - 37.56 28 166 0 44 15695 22 192070 25095 3.1 25 8 1 4 25% 1828 94254 12230 34%
c - 38.21 28 164 0 45 16182 22 198703 26552 3.1 25 8 1 4 25% 1858 94253 12230 34%
c
c  seconds   switched      rate          size/glue tier1    binary         remaining
c         MB   reductions    conflicts         size  tier2     irredundant
c           level   restarts        redundant    glue   trail         variables
c
c d 38.36 28 165 0 45 16295 21 200560 28157 3.1 25 8 1 4 25% 1829 94253 12212 34%
c u 38.41 28 165 0 45 16295 21 200560 25940 3.1 25 8 1 4 25% 1842 94253 12212 34%
c v 38.47 28 165 0 45 16295 21 200560 22883 3.1 25 8 1 4 25% 1852 94253 12212 34%
c w 38.58 28 165 0 45 16295 21 200560 22029 3.1 25 8 1 4 25% 1854 94253 12212 34%
c = 38.96 28 165 0 45 16295 21 200560 22029 3.1 25 8 1 4 25% 1904 94235 12186 34%
c d 38.97 28 165 0 45 16295 21 200560 22009 3.1 25 8 1 4 25% 1852 94235 12186 34%
c t 38.97 28 165 0 45 16295 21 200560 22009 3.1 25 8 1 4 25% 1829 94235 12186 34%
c u 39.03 28 165 0 45 16295 21 200560 21410 3.1 25 8 1 4 25% 1834 94235 12186 34%
c v 39.06 28 165 0 45 16295 21 200560 20706 3.1 25 8 1 4 25% 1836 94235 12186 34%
c w 39.14 28 165 0 45 16295 21 200560 20398 3.1 25 8 1 4 25% 1836 94235 12186 34%
c x 39.22 28 165 0 45 16295 21 200560 20389 3.1 25 8 1 4 25% 1839 94209 12186 34%
c = 39.60 28 165 0 45 16295 21 200560 20389 3.1 25 8 1 4 25% 1873 94209 12169 34%
c d 39.61 28 165 0 45 16295 21 200560 20366 3.1 25 8 1 4 25% 1828 94209 12169 34%
c t 39.61 28 165 0 45 16295 21 200560 20366 3.1 25 8 1 4 25% 1825 94209 12169 34%
c - 40.02 28 162 0 46 16608 21 205411 21550 3.1 25 8 1 4 24% 1840 94206 12169 34%
c - 40.60 28 160 0 47 16955 21 212194 24334 3.1 24 8 1 4 25% 1859 94205 12169 34%
c - 41.17 28 157 0 48 17346 20 219052 26071 3.1 24 8 1 4 25% 1874 94202 12169 34%
c o 41.27 28 156 0 48 17416 20 220288 27187 3.0 24 8 1 4 25% 1877 94202 12169 34%
c - 41.94 28 155 0 49 17979 20 225980 27462 3.0 24 8 1 4 25% 1891 94201 12169 34%
c - 42.40 28 156 0 50 18295 19 232980 28639 3.0 24 8 1 4 25% 1930 94200 12169 34%
c
c  seconds   switched      rate          size/glue tier1    binary         remaining
c         MB   reductions    conflicts         size  tier2     irredundant
c           level   restarts        redundant    glue   trail         variables
c
c s 43.21 28 154 0 50 18778 19 239964 35101 3.0 24 8 1 4 25% 1963 93560 12169 34%
c e 43.33 28 154 0 50 18778 19 239964 35101 3.0 24 8 1 4 25% 1558 109027 11056 31%
c 2 43.33 28 154 0 50 18778 19 239964 35101 3.0 24 8 1 4 25% 1557 109027 11056 31%
c s 43.36 28 154 0 50 18778 19 239964 35101 3.0 24 8 1 4 25% 1574 104903 11056 31%
c e 43.40 28 154 0 50 18778 19 239964 35101 3.0 24 8 1 4 25% 1522 105351 11024 31%
c ! 43.40 28 154 0 50 18778 19 239964 35101 3.0 24 8 1 4 25% 1522 105351 11024 31%
c - 43.43 28 154 0 51 18786 19 240052 22215 3.0 24 8 1 4 25% 1522 105351 11024 31%
c c 43.48 28 154 0 51 18822 19 240213 22366 3.0 24 8 1 4 25% 1538 105293 11018 31%
c d 43.49 28 154 0 51 18822 19 240213 22336 3.0 24 8 1 4 25% 1526 105293 11018 31%
c u 43.53 28 154 0 51 18822 19 240213 20307 3.0 24 8 1 4 25% 1540 105293 11018 31%
c v 43.58 28 154 0 51 18822 19 240213 17834 3.0 24 8 1 4 25% 1544 105293 11018 31%
c w 43.61 28 154 0 51 18822 19 240213 17380 3.0 24 8 1 4 25% 1544 105293 11018 31%
c = 44.04 28 154 0 51 18822 19 240213 17380 3.0 24 8 1 4 25% 1576 105287 11002 31%
c d 44.04 28 154 0 51 18822 19 240213 17331 3.0 24 8 1 4 25% 1538 105287 11002 31%
c t 44.05 28 154 0 51 18822 19 240213 17331 3.0 24 8 1 4 25% 1512 105287 11002 31%
c f 44.14 28 154 0 51 18822 19 240213 17331 3.0 24 8 1 4 25% 1537 105001 11013 31%
c u 44.18 28 154 0 51 18822 19 240213 17087 3.0 24 8 1 4 25% 1539 105001 11013 31%
c v 44.21 28 154 0 51 18822 19 240213 16757 3.0 24 8 1 4 25% 1539 105001 11013 31%
c w 44.23 28 154 0 51 18822 19 240213 16634 3.0 24 8 1 4 25% 1539 105001 11013 31%
c - 45.26 28 151 0 52 19247 19 247193 20015 3.0 24 8 1 4 25% 1547 105000 11013 31%
c
c  seconds   switched      rate          size/glue tier1    binary          remaining
c         MB   reductions    conflicts         size  tier2     irredundant
c           level   restarts        redundant    glue   trail          variables
c
c - 45.86 28 148 0 53 19705 19 254405 23183 2.9 24 8 1 4 25% 1561 104999 11013 31%
c - 46.40 28 146 0 54 20070 18 261686 24828 2.9 23 8 1 5 25% 1588 104993 11013 31%
c - 47.12 38 144 0 55 20623 18 269036 26372 2.9 23 8 1 5 25% 1600 104993 11013 31%
c - 47.79 38 140 0 56 21160 18 276452 27696 2.9 23 8 1 5 25% 1616 104993 11013 31%
c d 48.49 36 138 0 56 21680 18 283845 34502 2.8 23 8 1 5 25% 1629 104990 11008 31%
c u 48.55 36 138 0 56 21680 18 283845 32644 2.8 23 8 1 5 25% 1644 104990 11008 31%
c v 48.66 36 138 0 56 21680 18 283845 27736 2.8 23 8 1 5 25% 1647 104990 11008 31%
c w 48.80 36 138 0 56 21680 18 283845 27651 2.8 23 8 1 5 25% 1647 104990 11008 31%
c d 48.81 36 138 0 56 21680 18 283845 27650 2.8 23 8 1 5 25% 1643 104990 11006 31%
c t 48.81 36 138 0 56 21680 18 283845 27650 2.8 23 8 1 5 25% 1638 104990 11006 31%
c u 48.89 36 138 0 56 21680 18 283845 27233 2.8 23 8 1 5 25% 1642 104990 11006 31%
c v 48.96 36 138 0 56 21680 18 283845 26187 2.8 23 8 1 5 25% 1643 104990 11006 31%
c w 49.05 36 138 0 56 21680 18 283845 26040 2.8 23 8 1 5 25% 1643 104990 11006 31%
c x 49.14 36 138 0 56 21680 18 283845 26002 2.8 23 8 1 5 25% 1675 103760 11006 31%
c t 49.60 36 138 0 56 21680 18 283845 26002 2.8 23 8 1 5 25% 1668 103760 11006 31%
c - 49.62 36 138 0 57 21682 18 283935 21847 2.8 23 8 1 5 25% 1670 103759 11006 31%
c o 50.13 35 136 0 57 22046 17 290303 27715 2.8 23 8 1 5 25% 1688 103758 11006 31%
c - 50.18 36 135 0 58 22081 17 291486 24400 2.8 23 8 1 5 24% 1691 103758 11006 31%
c - 50.71 36 131 0 59 22503 17 299102 26767 2.8 22 8 1 5 24% 1718 103757 11006 31%
c - 51.33 36 128 0 60 22953 16 306783 28239 2.7 22 8 1 5 24% 1740 103755 11006 31%
c
c  seconds   switched      rate          size/glue tier1    binary          remaining
c         MB   reductions    conflicts         size  tier2     irredundant
c           level   restarts        redundant    glue   trail          variables
c
c - 51.81 37 125 0 61 23310 16 314529 29402 2.7 22 8 1 5 23% 1763 103755 11006 31%
c - 52.40 37 122 0 62 23771 16 322340 30449 2.6 21 8 1 5 23% 1787 103755 11006 31%
c - 52.89 36 119 0 63 24130 15 330214 31340 2.6 21 8 1 5 23% 1810 103755 11006 31%
c c 53.00 29 119 0 63 24191 15 331503 32522 2.6 21 8 1 5 23% 1830 103588 10972 31%
c d 53.00 29 119 0 63 24191 15 331503 32418 2.6 21 8 1 5 23% 1762 103588 10972 31%
c u 53.06 29 119 0 63 24191 15 331503 30171 2.6 21 8 1 5 23% 1784 103588 10972 31%
c v 53.14 29 119 0 63 24191 15 331503 26000 2.6 21 8 1 5 23% 1794 103588 10972 31%
c w 53.18 29 119 0 63 24191 15 331503 25617 2.6 21 8 1 5 23% 1794 103588 10972 31%
c d 53.18 29 119 0 63 24191 15 331503 25608 2.6 21 8 1 5 23% 1784 103588 10967 31%
c t 53.19 29 119 0 63 24191 15 331503 25608 2.6 21 8 1 5 23% 1765 103588 10967 31%
c u 53.26 29 119 0 63 24191 15 331503 25157 2.6 21 8 1 5 23% 1773 103588 10967 31%
c v 53.32 29 119 0 63 24191 15 331503 24188 2.6 21 8 1 5 23% 1776 103588 10967 31%
c w 53.36 29 119 0 63 24191 15 331503 24006 2.6 21 8 1 5 23% 1776 103588 10967 31%
c x 53.43 29 119 0 63 24191 15 331503 23949 2.6 21 8 1 5 23% 1776 103225 10967 31%
c d 53.43 29 119 0 63 24191 15 331503 23949 2.6 21 8 1 5 23% 1774 103225 10966 31%
c t 53.44 29 119 0 63 24191 15 331503 23949 2.6 21 8 1 5 23% 1770 103225 10966 31%
c - 53.75 29 115 0 64 24381 14 338154 25359 2.6 21 8 1 5 22% 1799 103225 10966 31%
c s 54.15 29 114 0 64 24699 14 343704 30467 2.6 20 8 1 5 22% 1817 102737 10966 31%
c e 54.19 29 114 0 64 24699 14 343704 30467 2.6 20 8 1 5 22% 1678 104124 10859 30%
c s 54.21 29 114 0 64 24699 14 343704 30467 2.6 20 8 1 5 22% 1688 103396 10859 30%
c
c  seconds   switched      rate          size/glue tier1    binary          remaining
c         MB   reductions    conflicts         size  tier2     irredundant
c           level   restarts        redundant    glue   trail          variables
c
c e 54.22 29 114 0 64 24699 14 343704 30467 2.6 20 8 1 5 22% 1678 103487 10852 30%
c - 54.39 29 113 0 65 24826 14 346154 27311 2.5 20 8 1 5 22% 1686 103487 10852 30%
c - 54.68 29 108 0 66 25066 14 354217 29221 2.5 20 8 1 5 21% 1724 103486 10852 30%
c - 54.94 29 106 0 67 25322 13 362344 30006 2.5 19 8 1 5 20% 1763 103484 10852 30%
c i 54.98 29 104 0 67 25361 13 365473 32594 2.5 19 8 1 5 20% 1784 103484 10849 30%
c i 55.00 29 104 0 67 25372 13 365753 32860 2.5 19 8 1 5 20% 1785 103484 10808 30%
c i 55.01 29 104 0 67 25386 13 366192 33218 2.5 19 8 1 5 20% 1792 103484 10807 30%
c i 55.02 29 104 0 67 25404 13 366552 33540 2.5 19 8 1 5 20% 1796 103484 10804 30%
c i 55.02 29 104 0 67 25423 13 366880 33801 2.5 19 8 1 5 20% 1802 103484 10803 30%
c i 55.03 29 104 0 67 25426 13 367298 34152 2.5 19 8 1 5 20% 1808 103484 10800 30%
c i 55.05 37 102 0 67 25442 12 369085 35659 2.5 19 8 1 5 19% 1821 103483 10799 30%
c i 55.05 37 102 0 67 25442 12 369109 35667 2.5 19 8 1 5 19% 1824 103483 10796 30%
c i 55.05 37 102 0 67 25442 12 369110 35667 2.5 19 8 1 5 19% 1824 103483 10795 30%
c i 55.05 37 102 0 67 25442 12 369111 35667 2.5 19 8 1 5 19% 1824 103483 10793 30%
c i 55.05 37 102 0 67 25442 12 369128 35676 2.5 19 8 1 5 19% 1827 103483 10791 30%
c } 55.05 37 102 0 67 25442 12 369133 35676 2.5 19 8 1 5 19% 1828 103483 10781 30%
c 0 55.05 37 102 0 67 25442 12 369133 35676 2.5 19 8 1 5 19% 1828 103483 10781 30%
c
c ---- [ result ] ------------------------------------------------------------
c
s UNSATISFIABLE
c
c ---- [ profiling ] ---------------------------------------------------------
c
c          39.93   72.54 %  search
c          39.93   72.54 %  focused
c          14.41   26.18 %  simplify
c          13.73   24.94 %  probe
c           6.18   11.23 %  sweep
c           4.94    8.97 %  vivify
c           1.04    1.90 %  eliminate
c           0.95    1.73 %  factor
c           0.80    1.45 %  congruence
c           0.67    1.22 %  substitute
c           0.61    1.11 %  preprocess
c           0.32    0.57 %  reduce
c           0.24    0.44 %  fastel
c           0.18    0.32 %  subsume
c           0.11    0.20 %  transitive
c           0.07    0.13 %  backbone
c           0.05    0.10 %  lucky
c           0.04    0.08 %  parse
c =============================================
c          55.05  100.00 %  total
c
c ---- [ statistics ] --------------------------------------------------------
c
c chronological:                         9934                3 %  conflicts
c conflicts:                           369133             6704.93 per second
c congruent:                             7794               22 %  variables
c decisions:                          6421032               17.39 per conflict
c eliminated:                           14966               42 %  variables
c factored:                              3700               10 %  variables
c fast_eliminated:                      10430               70 %  eliminated
c fast_strengthened:                       28                0 %  per strengthened
c fast_subsumed:                           55                0 %  per subsumed
c iterations:                              12                0 %  variables
c propagations:                     237185627          4308236    per second
c reductions:                              67             5509    interval
c reordered:                                8            46142    interval
c restarts:                             25442               15    interval
c strengthened:                         11910                0 %  checks
c substituted:                          13813               38 %  variables
c subsumed:                             43707                1 %  checks
c switched:                                 0                0    interval
c vivified:                            106877               14 %  checks
c
c ---- [ glue usage ] --------------------------------------------------------
c
c focused glue 1 used 751981 clauses 59.98% accumulated 59.98% tier1
c focused glue 2 used 230226 clauses 18.36% accumulated 78.34%
c focused glue 3 used  88282 clauses  7.04% accumulated 85.38%
c focused glue 4 used  47476 clauses  3.79% accumulated 89.17%
c focused glue 5 used  30814 clauses  2.46% accumulated 91.63% tier2
c
c ---- [ resources ] ---------------------------------------------------------
c
c maximum-resident-set-size:         39337984 bytes         38 MB
c process-time:                            55s              55.05 seconds
c
c ---- [ shutting down ] -----------------------------------------------------
c
c exit 20
